c [-tl=1800000, -p=4, instances/xcsp3/FrequencyAllocationXCSP3-m3-celar_50_7_10_5_0.800000_8.xml]
c 4 solvers in parallel
c parse instance...
c solve instance...
o 448 
o 294 
o 266 
o 252 
s OPTIMUM FOUND
v <instantiation>
v 	<list>T[0] T[1] T[2] T[3] T[4] T[5] T[6] T[7] T[8] T[9] T[10] T[11] T[12] T[13] T[14] T[15] T[16] T[17] T[18] T[19] T[20] T[21] T[22] T[23] T[24] T[25] T[26] T[27] T[28] T[29] T[30] T[31] T[32] T[33] T[34] T[35] T[36] T[37] T[38] T[39] T[40] T[41] T[42] T[43] T[44] T[45] T[46] T[47] T[48] T[49] R[0] R[1] R[2] R[3] R[4] R[5] R[6] R[7] R[8] R[9] R[10] R[11] R[12] R[13] R[14] R[15] R[16] R[17] R[18] R[19] R[20] R[21] R[22] R[23] R[24] R[25] R[26] R[27] R[28] R[29] R[30] R[31] R[32] R[33] R[34] R[35] R[36] R[37] R[38] R[39] R[40] R[41] R[42] R[43] R[44] R[45] R[46] R[47] R[48] R[49] span </list>
v 	<values>238 196 182 378 182 280 182 434 210 392 182 196 280 238 182 182 182 238 336 266 392 182 392 266 210 182 224 224 224 182 280 182 210 182 224 182 280 182 182 238 182 266 224 280 238 182 224 336 280 280 392 350 336 224 336 434 336 280 364 238 336 350 434 392 336 336 336 392 182 420 238 336 238 420 364 336 378 378 378 336 434 336 364 336 378 336 434 336 336 392 336 420 378 434 392 336 378 182 434 434 252 </values>
v </instantiation>
real 1.93
user 9.54
sys 0.60
